p edge 55 437 43
e 1 3
e 1 5
e 1 10
e 1 17
e 1 18
e 1 24
e 1 37
e 1 40
e 1 41
e 1 50
e 1 52
e 1 53
e 2 4
e 2 9
e 2 11
e 2 18
e 2 29
e 2 30
e 2 31
e 2 33
e 2 34
e 2 35
e 2 36
e 2 37
e 2 41
e 2 43
e 2 48
e 2 54
e 2 55
e 3 5
e 3 6
e 3 18
e 3 20
e 3 23
e 3 36
e 3 37
e 3 39
e 3 45
e 3 47
e 4 14
e 4 22
e 4 34
e 4 35
e 4 37
e 4 38
e 4 43
e 4 45
e 4 48
e 4 49
e 4 50
e 4 51
e 4 53
e 5 6
e 5 8
e 5 10
e 5 12
e 5 14
e 5 18
e 5 29
e 5 30
e 5 36
e 5 38
e 5 42
e 5 46
e 5 48
e 5 51
e 6 8
e 6 9
e 6 16
e 6 19
e 6 20
e 6 24
e 6 26
e 6 27
e 6 29
e 6 30
e 6 31
e 6 33
e 6 38
e 6 42
e 6 43
e 6 54
e 6 55
e 7 10
e 7 11
e 7 12
e 7 13
e 7 16
e 7 20
e 7 23
e 7 28
e 7 29
e 7 35
e 7 36
e 7 38
e 7 40
e 7 41
e 7 48
e 7 49
e 8 9
e 8 11
e 8 17
e 8 18
e 8 20
e 8 31
e 8 32
e 8 39
e 8 41
e 8 42
e 8 46
e 8 48
e 8 49
e 8 50
e 8 52
e 9 10
e 9 14
e 9 15
e 9 16
e 9 24
e 9 25
e 9 27
e 9 30
e 9 32
e 9 33
e 9 36
e 9 40
e 9 41
e 9 43
e 9 47
e 9 50
e 9 52
e 10 11
e 10 17
e 10 18
e 10 20
e 10 25
e 10 28
e 10 32
e 10 36
e 10 42
e 10 43
e 10 45
e 10 46
e 10 48
e 10 50
e 10 51
e 10 52
e 11 12
e 11 13
e 11 23
e 11 26
e 11 30
e 11 32
e 11 37
e 11 48
e 11 53
e 12 16
e 12 21
e 12 23
e 12 24
e 12 25
e 12 39
e 12 40
e 12 47
e 12 52
e 12 55
e 13 18
e 13 21
e 13 22
e 13 27
e 13 30
e 13 31
e 13 35
e 13 39
e 13 40
e 13 42
e 13 43
e 13 47
e 13 50
e 13 52
e 14 17
e 14 22
e 14 25
e 14 26
e 14 27
e 14 33
e 14 35
e 14 39
e 14 42
e 14 45
e 14 46
e 14 47
e 14 48
e 14 55
e 15 16
e 15 18
e 15 22
e 15 29
e 15 30
e 15 35
e 15 38
e 15 39
e 15 42
e 15 43
e 15 49
e 15 52
e 15 54
e 16 17
e 16 21
e 16 23
e 16 27
e 16 30
e 16 33
e 16 39
e 16 41
e 16 42
e 16 47
e 16 48
e 16 51
e 16 52
e 16 53
e 16 54
e 16 55
e 17 18
e 17 22
e 17 23
e 17 26
e 17 27
e 17 28
e 17 30
e 17 32
e 17 33
e 17 36
e 17 37
e 17 40
e 17 42
e 17 49
e 18 25
e 18 26
e 18 27
e 18 34
e 18 35
e 18 40
e 18 42
e 18 50
e 18 51
e 19 22
e 19 23
e 19 33
e 19 34
e 19 35
e 19 36
e 19 38
e 19 43
e 19 44
e 19 49
e 19 50
e 19 53
e 20 25
e 20 26
e 20 29
e 20 30
e 20 32
e 20 38
e 20 39
e 20 42
e 20 48
e 20 55
e 21 22
e 21 26
e 21 30
e 21 32
e 21 36
e 21 43
e 21 44
e 21 49
e 21 50
e 21 53
e 21 54
e 22 30
e 22 32
e 22 43
e 22 46
e 22 47
e 22 54
e 23 25
e 23 26
e 23 29
e 23 44
e 23 48
e 23 50
e 23 52
e 24 27
e 24 30
e 24 36
e 24 48
e 24 52
e 25 27
e 25 31
e 25 42
e 25 44
e 25 46
e 25 53
e 26 30
e 26 32
e 26 34
e 26 39
e 26 41
e 26 43
e 26 48
e 26 49
e 26 50
e 26 51
e 26 52
e 27 30
e 27 36
e 27 38
e 27 39
e 27 40
e 27 41
e 27 43
e 27 53
e 27 54
e 28 30
e 28 33
e 28 43
e 28 47
e 28 51
e 28 52
e 28 54
e 29 30
e 29 46
e 29 48
e 30 31
e 30 35
e 30 36
e 30 39
e 30 46
e 30 50
e 30 52
e 30 53
e 31 35
e 31 36
e 31 37
e 31 39
e 31 41
e 31 43
e 31 46
e 31 48
e 31 55
e 32 33
e 32 35
e 32 38
e 32 39
e 32 41
e 32 42
e 33 38
e 33 39
e 33 43
e 33 45
e 33 46
e 33 47
e 33 49
e 33 51
e 34 46
e 34 48
e 34 50
e 34 51
e 34 52
e 34 53
e 34 54
e 35 36
e 35 37
e 35 41
e 35 51
e 35 52
e 35 53
e 35 55
e 36 43
e 36 50
e 36 52
e 36 54
e 36 55
e 37 39
e 37 40
e 37 42
e 37 54
e 38 42
e 38 46
e 38 47
e 38 49
e 38 50
e 38 51
e 38 53
e 39 42
e 39 43
e 39 45
e 39 48
e 39 49
e 40 41
e 40 43
e 40 47
e 40 52
e 40 53
e 41 44
e 41 55
e 42 43
e 42 51
e 43 45
e 43 47
e 43 49
e 43 53
e 43 54
e 44 45
e 44 46
e 44 49
e 44 52
e 44 53
e 45 46
e 45 47
e 45 52
e 46 48
e 46 49
e 46 55
e 47 50
e 47 51
e 47 52
e 47 55
e 48 50
e 48 51
e 48 54
e 49 52
e 50 52
e 50 53
e 51 54
e 52 55
e 53 54
